% File represents an instance of a Composite Structure problem to be solved by a CP framework
% Created on 2025-03-26 10:41:27.092
T = 50;
n = 16;
m = 24;
edges = [(1, 2),
(5, 6),
(9, 10),
(13, 14),
(2, 3),
(6, 7),
(10, 11),
(14, 15),
(3, 4),
(7, 8),
(11, 12),
(16, 15),
(1, 5),
(5, 9),
(9, 13),
(2, 6),
(6, 10),
(10, 14),
(3, 7),
(7, 11),
(11, 15),
(4, 8),
(8, 12),
(12, 16)];
counts = [|4, 18, 4, 24,
|4, 18, 4, 18,
|4, 14, 4, 16,
|4, 12, 4, 16,
|4, 16, 4, 20,
|4, 16, 4, 16,
|4, 12, 4, 14,
|4, 10, 4, 14,
|4, 14, 4, 16,
|4, 12, 4, 16,
|4, 12, 4, 10,
|4, 10, 4, 10,
|4, 12, 4, 12,
|4, 12, 4, 10,
|4, 10, 4, 6,
|4, 10, 4, 8|];
